Maximize
  - 4.4672669453104 edge_0_1_0_0 - 3.5619210528984 edge_0_2_0_0
   - 3.2230963745304 edge_0_3_0_0 - 2.7616206346899 edge_0_5_0_0
   - 5.069727604656 edge_0_9_0_0 - 2.8080605687321 edge_0_10_0_0
   - 4.401176393868799 edge_0_11_0_0 - 5.7976024051309 edge_0_16_0_0
   - 5.309819597464799 edge_0_19_0_0 - 6.3118452825792 edge_0_22_0_0
   - 4.549369145816 edge_0_23_0_0 + 0.3513329370661234 edge_1_2_0_0
   - 0.1897647045505273 edge_1_3_0_0 - 0.2087377398321981 edge_1_6_0_0
   - 1.043692183323316 edge_1_7_0_0 - 0.5019524991464756 edge_1_10_0_0
   - 0.4925063139025979 edge_1_11_0_0 + 0.6240750307337928 edge_2_1_0_0
   + 0.0699575116105016 edge_2_3_0_0 + 0.818608346483313 edge_2_5_0_0
   - 0.00665196658411571 edge_2_6_0_0 - 0.6194799050879519 edge_2_8_0_0
   - 0.6439420244652265 edge_2_9_0_0 - 0.2375512410606705 edge_2_10_0_0
   - 0.6428535426809424 edge_2_11_0_0 - 0.7645489133268376 edge_2_15_0_0
   - 1.068503855390175 edge_2_16_0_0 - 0.6547734606565289 edge_2_19_0_0
   - 0.1699329339128167 edge_2_20_0_0 - 0.146038502118062 edge_2_21_0_0
   - 2.410594262414413 edge_2_22_0_0 - 1.230380321170976 edge_2_23_0_0
   + 0.3420259567496493 edge_3_1_0_0 + 2.260648996419793 edge_3_2_0_0
   + 3.580520732145655 edge_3_5_0_0 + 2.388582607254352 edge_3_6_0_0
   + 0.7647932170716072 edge_3_7_0_0 + 0.00726002193150267 edge_3_8_0_0
   + 0.4605748477159099 edge_3_9_0_0 + 0.4999439556802233 edge_3_10_0_0
   + 1.637359453435832 edge_3_11_0_0 + 1.816415101784909 edge_3_12_0_0
   - 0.1201978769039042 edge_3_13_0_0 - 1.785566804564585 edge_3_15_0_0
   - 0.8649885264428659 edge_3_16_0_0 - 0.4576891843066377 edge_3_19_0_0
   + 2.426304603193895 edge_3_20_0_0 + 1.905422271367574 edge_3_21_0_0
   - 2.543537401467185 edge_3_22_0_0 + 0.8523426500006998 edge_3_23_0_0
   + 4.4546473471956 edge_3_25_0_0 + 2.640779653058667 edge_5_1_0_0
   + 2.029793449705125 edge_5_2_0_0 + 2.554670040699016 edge_5_3_0_0
   + 1.365107127420874 edge_5_6_0_0 + 0.5094603769216082 edge_5_7_0_0
   - 0.1563833725187866 edge_5_8_0_0 + 0.2412653176009752 edge_5_9_0_0
   + 0.3680093192597627 edge_5_10_0_0 + 0.0451633826869484 edge_5_11_0_0
   + 0.6932861310630544 edge_5_12_0_0 - 1.144475404523974 edge_5_15_0_0
   - 1.23693836177035 edge_5_16_0_0 - 0.4893509267376287 edge_5_19_0_0
   - 0.0106292853435706 edge_5_20_0_0 + 0.6650327701048128 edge_5_21_0_0
   - 1.336190775142055 edge_5_22_0_0 - 0.820641679059967 edge_5_23_0_0
   - 0.7875039768783731 edge_6_3_0_0 - 0.625531293144981 edge_6_5_0_0
   - 0.1484963788007742 edge_6_7_0_0 - 0.4961643318786288 edge_7_3_0_0
   - 0.3390623951765747 edge_7_5_0_0 + 0.326267543965434 edge_7_6_0_0
   - 0.063797098297312 edge_7_8_0_0 - 0.3862857450199838 edge_7_9_0_0
   + 0.1771176580395177 edge_7_10_0_0 - 0.7435506536001796 edge_7_11_0_0
   + 0.2158331772801464 edge_7_12_0_0 - 1.617915929627661 edge_7_13_0_0
   - 0.1120711078530159 edge_8_7_0_0 - 0.5413452774478177 edge_9_2_0_0
   - 0.5706789455689616 edge_9_3_0_0 - 0.3303468584584029 edge_9_5_0_0
   - 0.00869836620187498 edge_9_6_0_0 + 0.2922883941514459 edge_9_7_0_0
   + 3.246268140080638 edge_9_8_0_0 + 0.8964711583432432 edge_9_10_0_0
   + 0.529248052719139 edge_9_11_0_0 + 0.6817099023836425 edge_9_12_0_0
   - 1.004129526820425 edge_9_15_0_0 - 0.7911557592035476 edge_9_16_0_0
   - 0.910489651278964 edge_9_19_0_0 + 0.6362071622683309 edge_9_20_0_0
   + 0.7878082971974787 edge_9_21_0_0 - 1.839384337715114 edge_9_22_0_0
   - 0.5790119261019006 edge_9_23_0_0 + 1.0155994681243 edge_9_25_0_0
   + 0.3322660455893905 edge_10_1_0_0 - 0.0293960036990306 edge_10_2_0_0
   + 0.0655850639019778 edge_10_3_0_0 - 0.28027883146711 edge_10_5_0_0
   + 1.183079765655635 edge_10_6_0_0 + 1.785284225737138 edge_10_7_0_0
   + 0.748851926214003 edge_10_8_0_0 + 1.26255830308577 edge_10_9_0_0
   + 1.023664792863118 edge_10_11_0_0 + 0.6701086440956138 edge_10_12_0_0
   - 0.5514681681928937 edge_10_13_0_0 + 0.485473311401136 edge_10_15_0_0
   - 0.1392249732997053 edge_10_16_0_0 + 1.196564817199747 edge_10_19_0_0
   + 0.3761630870005515 edge_10_20_0_0 + 1.466054456463522 edge_10_21_0_0
   - 0.7474140170367876 edge_10_22_0_0 + 0.4095822604765483 edge_10_23_0_0
   + 0.55870581676364 edge_10_25_0_0 - 0.5194687061947096 edge_11_1_0_0
   + 0.8462534504419922 edge_11_2_0_0 + 1.222255956894058 edge_11_3_0_0
   + 1.146037734639356 edge_11_5_0_0 + 1.882371781062041 edge_11_6_0_0
   + 2.277912487688918 edge_11_7_0_0 + 1.501635563274657 edge_11_8_0_0
   + 2.108318505009779 edge_11_9_0_0 + 3.017040977771906 edge_11_10_0_0
   + 2.38169110825391 edge_11_12_0_0 + 0.5345664175062248 edge_11_13_0_0
   + 0.2191534799169551 edge_11_14_0_0 + 1.076745534684595 edge_11_15_0_0
   + 0.7160464968772224 edge_11_16_0_0 + 0.7502087344174913 edge_11_18_0_0
   + 1.70859856106925 edge_11_19_0_0 + 1.938892292036219 edge_11_20_0_0
   + 1.911374901970829 edge_11_21_0_0 + 0.4948516297707563 edge_11_22_0_0
   + 1.148702821051445 edge_11_23_0_0 + 3.709062686609 edge_11_25_0_0
   - 0.8327524078724533 edge_12_11_0_0 - 0.4286049692771477 edge_12_13_0_0
   - 0.5261916082382116 edge_13_11_0_0 + 0.1914111222476711 edge_13_18_0_0
   + 0.6933769706591885 edge_13_19_0_0 + 0.4266063300346357 edge_14_16_0_0
   - 0.2892344668301107 edge_15_2_0_0 + 0.8835457189055044 edge_15_13_0_0
   + 3.61583062737852 edge_15_14_0_0 + 3.182008701871597 edge_15_16_0_0
   + 0.6432980849180663 edge_15_18_0_0 + 0.2426920874564531 edge_15_19_0_0
   + 1.070377754739131 edge_15_20_0_0 + 1.688790185267251 edge_15_21_0_0
   + 0.1707989862569961 edge_15_22_0_0 + 0.7676863635555893 edge_15_23_0_0
   + 1.6704798997712 edge_15_25_0_0 - 1.090820575239275 edge_16_3_0_0
   - 0.4131781988191205 edge_16_8_0_0 - 0.370193676092389 edge_16_9_0_0
   + 0.7213418081943533 edge_16_10_0_0 + 0.6276964699754272 edge_16_13_0_0
   + 1.496670552986382 edge_16_14_0_0 + 1.758147591334638 edge_16_15_0_0
   + 1.087020159185726 edge_16_18_0_0 + 0.5431193908725259 edge_16_19_0_0
   + 1.428041877939889 edge_16_20_0_0 + 1.541328594479096 edge_16_21_0_0
   + 0.3651896525217784 edge_16_22_0_0 + 1.077358459375369 edge_16_23_0_0
   + 1.4419081110979 edge_16_25_0_0 + 0.153092086320626 edge_18_13_0_0
   - 0.3037737532177919 edge_18_15_0_0 - 0.0747270050049678 edge_19_2_0_0
   - 0.0377504760636784 edge_19_3_0_0 - 0.7261318752461038 edge_19_5_0_0
   - 0.5005588584485476 edge_19_6_0_0 + 0.2954479541238709 edge_19_7_0_0
   - 0.1209915308984136 edge_19_8_0_0 - 0.1031240903259835 edge_19_9_0_0
   + 0.8443430872654362 edge_19_10_0_0 - 0.0387713806092836 edge_19_11_0_0
   + 0.5135506854422476 edge_19_12_0_0 + 3.364069118117206 edge_19_13_0_0
   + 0.2865559162122437 edge_19_14_0_0 + 1.985079159815681 edge_19_15_0_0
   + 1.581036653343371 edge_19_16_0_0 + 2.848640893535843 edge_19_18_0_0
   + 1.157266766682322 edge_19_20_0_0 + 1.923326293706193 edge_19_21_0_0
   + 0.0304587204641864 edge_19_22_0_0 + 0.6847067295294627 edge_19_23_0_0
   + 1.8909791890373 edge_19_25_0_0 - 0.6800892196907843 edge_20_15_0_0
   + 0.0884717733013542 edge_20_21_0_0 - 1.242795839733945 edge_21_15_0_0
   + 0.0371363176530558 edge_21_20_0_0 - 0.5749168099829274 edge_21_22_0_0
   - 0.4655841253326056 edge_21_23_0_0 - 0.6326689310336334 edge_22_21_0_0
   + 1.327462398552382 edge_22_23_0_0 + 0.277873684632 edge_22_25_0_0
   - 1.25333340720187 edge_23_1_0_0 - 0.2088787920185816 edge_23_2_0_0
   - 0.8556046256988026 edge_23_3_0_0 - 0.3447886511105178 edge_23_5_0_0
   - 0.1846143894475909 edge_23_6_0_0 + 0.6270206717340506 edge_23_7_0_0
   - 0.669414347162721 edge_23_9_0_0 + 0.5310744821685345 edge_23_10_0_0
   - 0.3932790811139923 edge_23_11_0_0 - 0.0898485317807549 edge_23_12_0_0
   + 0.2913168585527927 edge_23_13_0_0 - 0.3265416837109532 edge_23_14_0_0
   + 0.5045422020498136 edge_23_15_0_0 + 0.2716804106922501 edge_23_16_0_0
   + 0.242815048700581 edge_23_19_0_0 + 0.421972030938156 edge_23_20_0_0
   + 0.5162513161131543 edge_23_21_0_0 + 3.379566295787495 edge_23_22_0_0
   + 2.250849729897999 edge_23_25_0_0 - 0.6561369212635599 edge_25_23_0_0
Subject To
 one_parent_1: edge_0_1_0_0 + edge_2_1_0_0 + edge_3_1_0_0 + edge_5_1_0_0
   + edge_10_1_0_0 + edge_11_1_0_0 + edge_23_1_0_0 = 1
 consume_one_flow_unit_1: flow_0_1_0_0 - flow_1_2_0_0 - flow_1_3_0_0
   - flow_1_6_0_0 - flow_1_7_0_0 - flow_1_10_0_0 - flow_1_11_0_0
   + flow_2_1_0_0 + flow_3_1_0_0 + flow_5_1_0_0 + flow_10_1_0_0
   + flow_11_1_0_0 + flow_23_1_0_0 = 1
 one_parent_2: edge_0_2_0_0 + edge_1_2_0_0 + edge_3_2_0_0 + edge_5_2_0_0
   + edge_9_2_0_0 + edge_10_2_0_0 + edge_11_2_0_0 + edge_15_2_0_0
   + edge_19_2_0_0 + edge_23_2_0_0 = 1
 consume_one_flow_unit_2: flow_0_2_0_0 + flow_1_2_0_0 - flow_2_1_0_0
   - flow_2_3_0_0 - flow_2_5_0_0 - flow_2_6_0_0 - flow_2_8_0_0
   - flow_2_9_0_0 - flow_2_10_0_0 - flow_2_11_0_0 - flow_2_15_0_0
   - flow_2_16_0_0 - flow_2_19_0_0 - flow_2_20_0_0 - flow_2_21_0_0
   - flow_2_22_0_0 - flow_2_23_0_0 + flow_3_2_0_0 + flow_5_2_0_0
   + flow_9_2_0_0 + flow_10_2_0_0 + flow_11_2_0_0 + flow_15_2_0_0
   + flow_19_2_0_0 + flow_23_2_0_0 = 1
 one_parent_3: edge_0_3_0_0 + edge_1_3_0_0 + edge_2_3_0_0 + edge_5_3_0_0
   + edge_6_3_0_0 + edge_7_3_0_0 + edge_9_3_0_0 + edge_10_3_0_0
   + edge_11_3_0_0 + edge_16_3_0_0 + edge_19_3_0_0 + edge_23_3_0_0 = 1
 consume_one_flow_unit_3: flow_0_3_0_0 + flow_1_3_0_0 + flow_2_3_0_0
   - flow_3_1_0_0 - flow_3_2_0_0 - flow_3_5_0_0 - flow_3_6_0_0
   - flow_3_7_0_0 - flow_3_8_0_0 - flow_3_9_0_0 - flow_3_10_0_0
   - flow_3_11_0_0 - flow_3_12_0_0 - flow_3_13_0_0 - flow_3_15_0_0
   - flow_3_16_0_0 - flow_3_19_0_0 - flow_3_20_0_0 - flow_3_21_0_0
   - flow_3_22_0_0 - flow_3_23_0_0 - flow_3_25_0_0 + flow_5_3_0_0
   + flow_6_3_0_0 + flow_7_3_0_0 + flow_9_3_0_0 + flow_10_3_0_0
   + flow_11_3_0_0 + flow_16_3_0_0 + flow_19_3_0_0 + flow_23_3_0_0 = 1
 one_parent_4: = 1
 consume_one_flow_unit_4: = 1
 one_parent_5: edge_0_5_0_0 + edge_2_5_0_0 + edge_3_5_0_0 + edge_6_5_0_0
   + edge_7_5_0_0 + edge_9_5_0_0 + edge_10_5_0_0 + edge_11_5_0_0
   + edge_19_5_0_0 + edge_23_5_0_0 = 1
 consume_one_flow_unit_5: flow_0_5_0_0 + flow_2_5_0_0 + flow_3_5_0_0
   - flow_5_1_0_0 - flow_5_2_0_0 - flow_5_3_0_0 - flow_5_6_0_0
   - flow_5_7_0_0 - flow_5_8_0_0 - flow_5_9_0_0 - flow_5_10_0_0
   - flow_5_11_0_0 - flow_5_12_0_0 - flow_5_15_0_0 - flow_5_16_0_0
   - flow_5_19_0_0 - flow_5_20_0_0 - flow_5_21_0_0 - flow_5_22_0_0
   - flow_5_23_0_0 + flow_6_5_0_0 + flow_7_5_0_0 + flow_9_5_0_0
   + flow_10_5_0_0 + flow_11_5_0_0 + flow_19_5_0_0 + flow_23_5_0_0 = 1
 one_parent_6: edge_1_6_0_0 + edge_2_6_0_0 + edge_3_6_0_0 + edge_5_6_0_0
   + edge_7_6_0_0 + edge_9_6_0_0 + edge_10_6_0_0 + edge_11_6_0_0
   + edge_19_6_0_0 + edge_23_6_0_0 = 1
 consume_one_flow_unit_6: flow_1_6_0_0 + flow_2_6_0_0 + flow_3_6_0_0
   + flow_5_6_0_0 - flow_6_3_0_0 - flow_6_5_0_0 - flow_6_7_0_0
   + flow_7_6_0_0 + flow_9_6_0_0 + flow_10_6_0_0 + flow_11_6_0_0
   + flow_19_6_0_0 + flow_23_6_0_0 = 1
 one_parent_7: edge_1_7_0_0 + edge_3_7_0_0 + edge_5_7_0_0 + edge_6_7_0_0
   + edge_8_7_0_0 + edge_9_7_0_0 + edge_10_7_0_0 + edge_11_7_0_0
   + edge_19_7_0_0 + edge_23_7_0_0 = 1
 consume_one_flow_unit_7: flow_1_7_0_0 + flow_3_7_0_0 + flow_5_7_0_0
   + flow_6_7_0_0 - flow_7_3_0_0 - flow_7_5_0_0 - flow_7_6_0_0
   - flow_7_8_0_0 - flow_7_9_0_0 - flow_7_10_0_0 - flow_7_11_0_0
   - flow_7_12_0_0 - flow_7_13_0_0 + flow_8_7_0_0 + flow_9_7_0_0
   + flow_10_7_0_0 + flow_11_7_0_0 + flow_19_7_0_0 + flow_23_7_0_0 = 1
 one_parent_8: edge_2_8_0_0 + edge_3_8_0_0 + edge_5_8_0_0 + edge_7_8_0_0
   + edge_9_8_0_0 + edge_10_8_0_0 + edge_11_8_0_0 + edge_16_8_0_0
   + edge_19_8_0_0 = 1
 consume_one_flow_unit_8: flow_2_8_0_0 + flow_3_8_0_0 + flow_5_8_0_0
   + flow_7_8_0_0 - flow_8_7_0_0 + flow_9_8_0_0 + flow_10_8_0_0
   + flow_11_8_0_0 + flow_16_8_0_0 + flow_19_8_0_0 = 1
 one_parent_9: edge_0_9_0_0 + edge_2_9_0_0 + edge_3_9_0_0 + edge_5_9_0_0
   + edge_7_9_0_0 + edge_10_9_0_0 + edge_11_9_0_0 + edge_16_9_0_0
   + edge_19_9_0_0 + edge_23_9_0_0 = 1
 consume_one_flow_unit_9: flow_0_9_0_0 + flow_2_9_0_0 + flow_3_9_0_0
   + flow_5_9_0_0 + flow_7_9_0_0 - flow_9_2_0_0 - flow_9_3_0_0
   - flow_9_5_0_0 - flow_9_6_0_0 - flow_9_7_0_0 - flow_9_8_0_0
   - flow_9_10_0_0 - flow_9_11_0_0 - flow_9_12_0_0 - flow_9_15_0_0
   - flow_9_16_0_0 - flow_9_19_0_0 - flow_9_20_0_0 - flow_9_21_0_0
   - flow_9_22_0_0 - flow_9_23_0_0 - flow_9_25_0_0 + flow_10_9_0_0
   + flow_11_9_0_0 + flow_16_9_0_0 + flow_19_9_0_0 + flow_23_9_0_0 = 1
 one_parent_10: edge_0_10_0_0 + edge_1_10_0_0 + edge_2_10_0_0
   + edge_3_10_0_0 + edge_5_10_0_0 + edge_7_10_0_0 + edge_9_10_0_0
   + edge_11_10_0_0 + edge_16_10_0_0 + edge_19_10_0_0 + edge_23_10_0_0 = 1
 consume_one_flow_unit_10: flow_0_10_0_0 + flow_1_10_0_0 + flow_2_10_0_0
   + flow_3_10_0_0 + flow_5_10_0_0 + flow_7_10_0_0 + flow_9_10_0_0
   - flow_10_1_0_0 - flow_10_2_0_0 - flow_10_3_0_0 - flow_10_5_0_0
   - flow_10_6_0_0 - flow_10_7_0_0 - flow_10_8_0_0 - flow_10_9_0_0
   - flow_10_11_0_0 - flow_10_12_0_0 - flow_10_13_0_0 - flow_10_15_0_0
   - flow_10_16_0_0 - flow_10_19_0_0 - flow_10_20_0_0 - flow_10_21_0_0
   - flow_10_22_0_0 - flow_10_23_0_0 - flow_10_25_0_0 + flow_11_10_0_0
   + flow_16_10_0_0 + flow_19_10_0_0 + flow_23_10_0_0 = 1
 one_parent_11: edge_0_11_0_0 + edge_1_11_0_0 + edge_2_11_0_0
   + edge_3_11_0_0 + edge_5_11_0_0 + edge_7_11_0_0 + edge_9_11_0_0
   + edge_10_11_0_0 + edge_12_11_0_0 + edge_13_11_0_0 + edge_19_11_0_0
   + edge_23_11_0_0 = 1
 consume_one_flow_unit_11: flow_0_11_0_0 + flow_1_11_0_0 + flow_2_11_0_0
   + flow_3_11_0_0 + flow_5_11_0_0 + flow_7_11_0_0 + flow_9_11_0_0
   + flow_10_11_0_0 - flow_11_1_0_0 - flow_11_2_0_0 - flow_11_3_0_0
   - flow_11_5_0_0 - flow_11_6_0_0 - flow_11_7_0_0 - flow_11_8_0_0
   - flow_11_9_0_0 - flow_11_10_0_0 - flow_11_12_0_0 - flow_11_13_0_0
   - flow_11_14_0_0 - flow_11_15_0_0 - flow_11_16_0_0 - flow_11_18_0_0
   - flow_11_19_0_0 - flow_11_20_0_0 - flow_11_21_0_0 - flow_11_22_0_0
   - flow_11_23_0_0 - flow_11_25_0_0 + flow_12_11_0_0 + flow_13_11_0_0
   + flow_19_11_0_0 + flow_23_11_0_0 = 1
 one_parent_12: edge_3_12_0_0 + edge_5_12_0_0 + edge_7_12_0_0
   + edge_9_12_0_0 + edge_10_12_0_0 + edge_11_12_0_0 + edge_19_12_0_0
   + edge_23_12_0_0 = 1
 consume_one_flow_unit_12: flow_3_12_0_0 + flow_5_12_0_0 + flow_7_12_0_0
   + flow_9_12_0_0 + flow_10_12_0_0 + flow_11_12_0_0 - flow_12_11_0_0
   - flow_12_13_0_0 + flow_19_12_0_0 + flow_23_12_0_0 = 1
 one_parent_13: edge_3_13_0_0 + edge_7_13_0_0 + edge_10_13_0_0
   + edge_11_13_0_0 + edge_12_13_0_0 + edge_15_13_0_0 + edge_16_13_0_0
   + edge_18_13_0_0 + edge_19_13_0_0 + edge_23_13_0_0 = 1
 consume_one_flow_unit_13: flow_3_13_0_0 + flow_7_13_0_0 + flow_10_13_0_0
   + flow_11_13_0_0 + flow_12_13_0_0 - flow_13_11_0_0 - flow_13_18_0_0
   - flow_13_19_0_0 + flow_15_13_0_0 + flow_16_13_0_0 + flow_18_13_0_0
   + flow_19_13_0_0 + flow_23_13_0_0 = 1
 one_parent_14: edge_11_14_0_0 + edge_15_14_0_0 + edge_16_14_0_0
   + edge_19_14_0_0 + edge_23_14_0_0 = 1
 consume_one_flow_unit_14: flow_11_14_0_0 - flow_14_16_0_0 + flow_15_14_0_0
   + flow_16_14_0_0 + flow_19_14_0_0 + flow_23_14_0_0 = 1
 one_parent_15: edge_2_15_0_0 + edge_3_15_0_0 + edge_5_15_0_0
   + edge_9_15_0_0 + edge_10_15_0_0 + edge_11_15_0_0 + edge_16_15_0_0
   + edge_18_15_0_0 + edge_19_15_0_0 + edge_20_15_0_0 + edge_21_15_0_0
   + edge_23_15_0_0 = 1
 consume_one_flow_unit_15: flow_2_15_0_0 + flow_3_15_0_0 + flow_5_15_0_0
   + flow_9_15_0_0 + flow_10_15_0_0 + flow_11_15_0_0 - flow_15_2_0_0
   - flow_15_13_0_0 - flow_15_14_0_0 - flow_15_16_0_0 - flow_15_18_0_0
   - flow_15_19_0_0 - flow_15_20_0_0 - flow_15_21_0_0 - flow_15_22_0_0
   - flow_15_23_0_0 - flow_15_25_0_0 + flow_16_15_0_0 + flow_18_15_0_0
   + flow_19_15_0_0 + flow_20_15_0_0 + flow_21_15_0_0 + flow_23_15_0_0 = 1
 one_parent_16: edge_0_16_0_0 + edge_2_16_0_0 + edge_3_16_0_0
   + edge_5_16_0_0 + edge_9_16_0_0 + edge_10_16_0_0 + edge_11_16_0_0
   + edge_14_16_0_0 + edge_15_16_0_0 + edge_19_16_0_0 + edge_23_16_0_0 = 1
 consume_one_flow_unit_16: flow_0_16_0_0 + flow_2_16_0_0 + flow_3_16_0_0
   + flow_5_16_0_0 + flow_9_16_0_0 + flow_10_16_0_0 + flow_11_16_0_0
   + flow_14_16_0_0 + flow_15_16_0_0 - flow_16_3_0_0 - flow_16_8_0_0
   - flow_16_9_0_0 - flow_16_10_0_0 - flow_16_13_0_0 - flow_16_14_0_0
   - flow_16_15_0_0 - flow_16_18_0_0 - flow_16_19_0_0 - flow_16_20_0_0
   - flow_16_21_0_0 - flow_16_22_0_0 - flow_16_23_0_0 - flow_16_25_0_0
   + flow_19_16_0_0 + flow_23_16_0_0 = 1
 one_parent_17: = 1
 consume_one_flow_unit_17: = 1
 one_parent_18: edge_11_18_0_0 + edge_13_18_0_0 + edge_15_18_0_0
   + edge_16_18_0_0 + edge_19_18_0_0 = 1
 consume_one_flow_unit_18: flow_11_18_0_0 + flow_13_18_0_0 + flow_15_18_0_0
   + flow_16_18_0_0 - flow_18_13_0_0 - flow_18_15_0_0 + flow_19_18_0_0 = 1
 one_parent_19: edge_0_19_0_0 + edge_2_19_0_0 + edge_3_19_0_0
   + edge_5_19_0_0 + edge_9_19_0_0 + edge_10_19_0_0 + edge_11_19_0_0
   + edge_13_19_0_0 + edge_15_19_0_0 + edge_16_19_0_0 + edge_23_19_0_0 = 1
 consume_one_flow_unit_19: flow_0_19_0_0 + flow_2_19_0_0 + flow_3_19_0_0
   + flow_5_19_0_0 + flow_9_19_0_0 + flow_10_19_0_0 + flow_11_19_0_0
   + flow_13_19_0_0 + flow_15_19_0_0 + flow_16_19_0_0 - flow_19_2_0_0
   - flow_19_3_0_0 - flow_19_5_0_0 - flow_19_6_0_0 - flow_19_7_0_0
   - flow_19_8_0_0 - flow_19_9_0_0 - flow_19_10_0_0 - flow_19_11_0_0
   - flow_19_12_0_0 - flow_19_13_0_0 - flow_19_14_0_0 - flow_19_15_0_0
   - flow_19_16_0_0 - flow_19_18_0_0 - flow_19_20_0_0 - flow_19_21_0_0
   - flow_19_22_0_0 - flow_19_23_0_0 - flow_19_25_0_0 + flow_23_19_0_0 = 1
 one_parent_20: edge_2_20_0_0 + edge_3_20_0_0 + edge_5_20_0_0
   + edge_9_20_0_0 + edge_10_20_0_0 + edge_11_20_0_0 + edge_15_20_0_0
   + edge_16_20_0_0 + edge_19_20_0_0 + edge_21_20_0_0 + edge_23_20_0_0 = 1
 consume_one_flow_unit_20: flow_2_20_0_0 + flow_3_20_0_0 + flow_5_20_0_0
   + flow_9_20_0_0 + flow_10_20_0_0 + flow_11_20_0_0 + flow_15_20_0_0
   + flow_16_20_0_0 + flow_19_20_0_0 - flow_20_15_0_0 - flow_20_21_0_0
   + flow_21_20_0_0 + flow_23_20_0_0 = 1
 one_parent_21: edge_2_21_0_0 + edge_3_21_0_0 + edge_5_21_0_0
   + edge_9_21_0_0 + edge_10_21_0_0 + edge_11_21_0_0 + edge_15_21_0_0
   + edge_16_21_0_0 + edge_19_21_0_0 + edge_20_21_0_0 + edge_22_21_0_0
   + edge_23_21_0_0 = 1
 consume_one_flow_unit_21: flow_2_21_0_0 + flow_3_21_0_0 + flow_5_21_0_0
   + flow_9_21_0_0 + flow_10_21_0_0 + flow_11_21_0_0 + flow_15_21_0_0
   + flow_16_21_0_0 + flow_19_21_0_0 + flow_20_21_0_0 - flow_21_15_0_0
   - flow_21_20_0_0 - flow_21_22_0_0 - flow_21_23_0_0 + flow_22_21_0_0
   + flow_23_21_0_0 = 1
 one_parent_22: edge_0_22_0_0 + edge_2_22_0_0 + edge_3_22_0_0
   + edge_5_22_0_0 + edge_9_22_0_0 + edge_10_22_0_0 + edge_11_22_0_0
   + edge_15_22_0_0 + edge_16_22_0_0 + edge_19_22_0_0 + edge_21_22_0_0
   + edge_23_22_0_0 = 1
 consume_one_flow_unit_22: flow_0_22_0_0 + flow_2_22_0_0 + flow_3_22_0_0
   + flow_5_22_0_0 + flow_9_22_0_0 + flow_10_22_0_0 + flow_11_22_0_0
   + flow_15_22_0_0 + flow_16_22_0_0 + flow_19_22_0_0 + flow_21_22_0_0
   - flow_22_21_0_0 - flow_22_23_0_0 - flow_22_25_0_0 + flow_23_22_0_0 = 1
 one_parent_23: edge_0_23_0_0 + edge_2_23_0_0 + edge_3_23_0_0
   + edge_5_23_0_0 + edge_9_23_0_0 + edge_10_23_0_0 + edge_11_23_0_0
   + edge_15_23_0_0 + edge_16_23_0_0 + edge_19_23_0_0 + edge_21_23_0_0
   + edge_22_23_0_0 + edge_25_23_0_0 = 1
 consume_one_flow_unit_23: flow_0_23_0_0 + flow_2_23_0_0 + flow_3_23_0_0
   + flow_5_23_0_0 + flow_9_23_0_0 + flow_10_23_0_0 + flow_11_23_0_0
   + flow_15_23_0_0 + flow_16_23_0_0 + flow_19_23_0_0 + flow_21_23_0_0
   + flow_22_23_0_0 - flow_23_1_0_0 - flow_23_2_0_0 - flow_23_3_0_0
   - flow_23_5_0_0 - flow_23_6_0_0 - flow_23_7_0_0 - flow_23_9_0_0
   - flow_23_10_0_0 - flow_23_11_0_0 - flow_23_12_0_0 - flow_23_13_0_0
   - flow_23_14_0_0 - flow_23_15_0_0 - flow_23_16_0_0 - flow_23_19_0_0
   - flow_23_20_0_0 - flow_23_21_0_0 - flow_23_22_0_0 - flow_23_25_0_0
   + flow_25_23_0_0 = 1
 one_parent_24: = 1
 consume_one_flow_unit_24: = 1
 one_parent_25: edge_3_25_0_0 + edge_9_25_0_0 + edge_10_25_0_0
   + edge_11_25_0_0 + edge_15_25_0_0 + edge_16_25_0_0 + edge_19_25_0_0
   + edge_22_25_0_0 + edge_23_25_0_0 = 1
 consume_one_flow_unit_25: flow_3_25_0_0 + flow_9_25_0_0 + flow_10_25_0_0
   + flow_11_25_0_0 + flow_15_25_0_0 + flow_16_25_0_0 + flow_19_25_0_0
   + flow_22_25_0_0 + flow_23_25_0_0 - flow_25_23_0_0 = 1
 root_flow: flow_0_1_0_0 + flow_0_2_0_0 + flow_0_3_0_0 + flow_0_5_0_0
   + flow_0_9_0_0 + flow_0_10_0_0 + flow_0_11_0_0 + flow_0_16_0_0
   + flow_0_19_0_0 + flow_0_22_0_0 + flow_0_23_0_0 = 25
 inactive_no_flow_0_1_0_0: flow_0_1_0_0 - 1000 edge_0_1_0_0 <= 0
 inactive_no_flow_0_2_0_0: flow_0_2_0_0 - 1000 edge_0_2_0_0 <= 0
 inactive_no_flow_0_3_0_0: flow_0_3_0_0 - 1000 edge_0_3_0_0 <= 0
 inactive_no_flow_0_5_0_0: flow_0_5_0_0 - 1000 edge_0_5_0_0 <= 0
 inactive_no_flow_0_9_0_0: flow_0_9_0_0 - 1000 edge_0_9_0_0 <= 0
 inactive_no_flow_0_10_0_0: flow_0_10_0_0 - 1000 edge_0_10_0_0 <= 0
 inactive_no_flow_0_11_0_0: flow_0_11_0_0 - 1000 edge_0_11_0_0 <= 0
 inactive_no_flow_0_16_0_0: flow_0_16_0_0 - 1000 edge_0_16_0_0 <= 0
 inactive_no_flow_0_19_0_0: flow_0_19_0_0 - 1000 edge_0_19_0_0 <= 0
 inactive_no_flow_0_22_0_0: flow_0_22_0_0 - 1000 edge_0_22_0_0 <= 0
 inactive_no_flow_0_23_0_0: flow_0_23_0_0 - 1000 edge_0_23_0_0 <= 0
 inactive_no_flow_1_2_0_0: flow_1_2_0_0 - 1000 edge_1_2_0_0 <= 0
 inactive_no_flow_1_3_0_0: flow_1_3_0_0 - 1000 edge_1_3_0_0 <= 0
 inactive_no_flow_1_6_0_0: flow_1_6_0_0 - 1000 edge_1_6_0_0 <= 0
 inactive_no_flow_1_7_0_0: flow_1_7_0_0 - 1000 edge_1_7_0_0 <= 0
 inactive_no_flow_1_10_0_0: flow_1_10_0_0 - 1000 edge_1_10_0_0 <= 0
 inactive_no_flow_1_11_0_0: flow_1_11_0_0 - 1000 edge_1_11_0_0 <= 0
 inactive_no_flow_2_1_0_0: flow_2_1_0_0 - 1000 edge_2_1_0_0 <= 0
 inactive_no_flow_2_3_0_0: flow_2_3_0_0 - 1000 edge_2_3_0_0 <= 0
 inactive_no_flow_2_5_0_0: flow_2_5_0_0 - 1000 edge_2_5_0_0 <= 0
 inactive_no_flow_2_6_0_0: flow_2_6_0_0 - 1000 edge_2_6_0_0 <= 0
 inactive_no_flow_2_8_0_0: flow_2_8_0_0 - 1000 edge_2_8_0_0 <= 0
 inactive_no_flow_2_9_0_0: flow_2_9_0_0 - 1000 edge_2_9_0_0 <= 0
 inactive_no_flow_2_10_0_0: flow_2_10_0_0 - 1000 edge_2_10_0_0 <= 0
 inactive_no_flow_2_11_0_0: flow_2_11_0_0 - 1000 edge_2_11_0_0 <= 0
 inactive_no_flow_2_15_0_0: flow_2_15_0_0 - 1000 edge_2_15_0_0 <= 0
 inactive_no_flow_2_16_0_0: flow_2_16_0_0 - 1000 edge_2_16_0_0 <= 0
 inactive_no_flow_2_19_0_0: flow_2_19_0_0 - 1000 edge_2_19_0_0 <= 0
 inactive_no_flow_2_20_0_0: flow_2_20_0_0 - 1000 edge_2_20_0_0 <= 0
 inactive_no_flow_2_21_0_0: flow_2_21_0_0 - 1000 edge_2_21_0_0 <= 0
 inactive_no_flow_2_22_0_0: flow_2_22_0_0 - 1000 edge_2_22_0_0 <= 0
 inactive_no_flow_2_23_0_0: flow_2_23_0_0 - 1000 edge_2_23_0_0 <= 0
 inactive_no_flow_3_1_0_0: flow_3_1_0_0 - 1000 edge_3_1_0_0 <= 0
 inactive_no_flow_3_2_0_0: flow_3_2_0_0 - 1000 edge_3_2_0_0 <= 0
 inactive_no_flow_3_5_0_0: flow_3_5_0_0 - 1000 edge_3_5_0_0 <= 0
 inactive_no_flow_3_6_0_0: flow_3_6_0_0 - 1000 edge_3_6_0_0 <= 0
 inactive_no_flow_3_7_0_0: flow_3_7_0_0 - 1000 edge_3_7_0_0 <= 0
 inactive_no_flow_3_8_0_0: flow_3_8_0_0 - 1000 edge_3_8_0_0 <= 0
 inactive_no_flow_3_9_0_0: flow_3_9_0_0 - 1000 edge_3_9_0_0 <= 0
 inactive_no_flow_3_10_0_0: flow_3_10_0_0 - 1000 edge_3_10_0_0 <= 0
 inactive_no_flow_3_11_0_0: flow_3_11_0_0 - 1000 edge_3_11_0_0 <= 0
 inactive_no_flow_3_12_0_0: flow_3_12_0_0 - 1000 edge_3_12_0_0 <= 0
 inactive_no_flow_3_13_0_0: flow_3_13_0_0 - 1000 edge_3_13_0_0 <= 0
 inactive_no_flow_3_15_0_0: flow_3_15_0_0 - 1000 edge_3_15_0_0 <= 0
 inactive_no_flow_3_16_0_0: flow_3_16_0_0 - 1000 edge_3_16_0_0 <= 0
 inactive_no_flow_3_19_0_0: flow_3_19_0_0 - 1000 edge_3_19_0_0 <= 0
 inactive_no_flow_3_20_0_0: flow_3_20_0_0 - 1000 edge_3_20_0_0 <= 0
 inactive_no_flow_3_21_0_0: flow_3_21_0_0 - 1000 edge_3_21_0_0 <= 0
 inactive_no_flow_3_22_0_0: flow_3_22_0_0 - 1000 edge_3_22_0_0 <= 0
 inactive_no_flow_3_23_0_0: flow_3_23_0_0 - 1000 edge_3_23_0_0 <= 0
 inactive_no_flow_3_25_0_0: flow_3_25_0_0 - 1000 edge_3_25_0_0 <= 0
 inactive_no_flow_5_1_0_0: flow_5_1_0_0 - 1000 edge_5_1_0_0 <= 0
 inactive_no_flow_5_2_0_0: flow_5_2_0_0 - 1000 edge_5_2_0_0 <= 0
 inactive_no_flow_5_3_0_0: flow_5_3_0_0 - 1000 edge_5_3_0_0 <= 0
 inactive_no_flow_5_6_0_0: flow_5_6_0_0 - 1000 edge_5_6_0_0 <= 0
 inactive_no_flow_5_7_0_0: flow_5_7_0_0 - 1000 edge_5_7_0_0 <= 0
 inactive_no_flow_5_8_0_0: flow_5_8_0_0 - 1000 edge_5_8_0_0 <= 0
 inactive_no_flow_5_9_0_0: flow_5_9_0_0 - 1000 edge_5_9_0_0 <= 0
 inactive_no_flow_5_10_0_0: flow_5_10_0_0 - 1000 edge_5_10_0_0 <= 0
 inactive_no_flow_5_11_0_0: flow_5_11_0_0 - 1000 edge_5_11_0_0 <= 0
 inactive_no_flow_5_12_0_0: flow_5_12_0_0 - 1000 edge_5_12_0_0 <= 0
 inactive_no_flow_5_15_0_0: flow_5_15_0_0 - 1000 edge_5_15_0_0 <= 0
 inactive_no_flow_5_16_0_0: flow_5_16_0_0 - 1000 edge_5_16_0_0 <= 0
 inactive_no_flow_5_19_0_0: flow_5_19_0_0 - 1000 edge_5_19_0_0 <= 0
 inactive_no_flow_5_20_0_0: flow_5_20_0_0 - 1000 edge_5_20_0_0 <= 0
 inactive_no_flow_5_21_0_0: flow_5_21_0_0 - 1000 edge_5_21_0_0 <= 0
 inactive_no_flow_5_22_0_0: flow_5_22_0_0 - 1000 edge_5_22_0_0 <= 0
 inactive_no_flow_5_23_0_0: flow_5_23_0_0 - 1000 edge_5_23_0_0 <= 0
 inactive_no_flow_6_3_0_0: flow_6_3_0_0 - 1000 edge_6_3_0_0 <= 0
 inactive_no_flow_6_5_0_0: flow_6_5_0_0 - 1000 edge_6_5_0_0 <= 0
 inactive_no_flow_6_7_0_0: flow_6_7_0_0 - 1000 edge_6_7_0_0 <= 0
 inactive_no_flow_7_3_0_0: flow_7_3_0_0 - 1000 edge_7_3_0_0 <= 0
 inactive_no_flow_7_5_0_0: flow_7_5_0_0 - 1000 edge_7_5_0_0 <= 0
 inactive_no_flow_7_6_0_0: flow_7_6_0_0 - 1000 edge_7_6_0_0 <= 0
 inactive_no_flow_7_8_0_0: flow_7_8_0_0 - 1000 edge_7_8_0_0 <= 0
 inactive_no_flow_7_9_0_0: flow_7_9_0_0 - 1000 edge_7_9_0_0 <= 0
 inactive_no_flow_7_10_0_0: flow_7_10_0_0 - 1000 edge_7_10_0_0 <= 0
 inactive_no_flow_7_11_0_0: flow_7_11_0_0 - 1000 edge_7_11_0_0 <= 0
 inactive_no_flow_7_12_0_0: flow_7_12_0_0 - 1000 edge_7_12_0_0 <= 0
 inactive_no_flow_7_13_0_0: flow_7_13_0_0 - 1000 edge_7_13_0_0 <= 0
 inactive_no_flow_8_7_0_0: flow_8_7_0_0 - 1000 edge_8_7_0_0 <= 0
 inactive_no_flow_9_2_0_0: flow_9_2_0_0 - 1000 edge_9_2_0_0 <= 0
 inactive_no_flow_9_3_0_0: flow_9_3_0_0 - 1000 edge_9_3_0_0 <= 0
 inactive_no_flow_9_5_0_0: flow_9_5_0_0 - 1000 edge_9_5_0_0 <= 0
 inactive_no_flow_9_6_0_0: flow_9_6_0_0 - 1000 edge_9_6_0_0 <= 0
 inactive_no_flow_9_7_0_0: flow_9_7_0_0 - 1000 edge_9_7_0_0 <= 0
 inactive_no_flow_9_8_0_0: flow_9_8_0_0 - 1000 edge_9_8_0_0 <= 0
 inactive_no_flow_9_10_0_0: flow_9_10_0_0 - 1000 edge_9_10_0_0 <= 0
 inactive_no_flow_9_11_0_0: flow_9_11_0_0 - 1000 edge_9_11_0_0 <= 0
 inactive_no_flow_9_12_0_0: flow_9_12_0_0 - 1000 edge_9_12_0_0 <= 0
 inactive_no_flow_9_15_0_0: flow_9_15_0_0 - 1000 edge_9_15_0_0 <= 0
 inactive_no_flow_9_16_0_0: flow_9_16_0_0 - 1000 edge_9_16_0_0 <= 0
 inactive_no_flow_9_19_0_0: flow_9_19_0_0 - 1000 edge_9_19_0_0 <= 0
 inactive_no_flow_9_20_0_0: flow_9_20_0_0 - 1000 edge_9_20_0_0 <= 0
 inactive_no_flow_9_21_0_0: flow_9_21_0_0 - 1000 edge_9_21_0_0 <= 0
 inactive_no_flow_9_22_0_0: flow_9_22_0_0 - 1000 edge_9_22_0_0 <= 0
 inactive_no_flow_9_23_0_0: flow_9_23_0_0 - 1000 edge_9_23_0_0 <= 0
 inactive_no_flow_9_25_0_0: flow_9_25_0_0 - 1000 edge_9_25_0_0 <= 0
 inactive_no_flow_10_1_0_0: flow_10_1_0_0 - 1000 edge_10_1_0_0 <= 0
 inactive_no_flow_10_2_0_0: flow_10_2_0_0 - 1000 edge_10_2_0_0 <= 0
 inactive_no_flow_10_3_0_0: flow_10_3_0_0 - 1000 edge_10_3_0_0 <= 0
 inactive_no_flow_10_5_0_0: flow_10_5_0_0 - 1000 edge_10_5_0_0 <= 0
 inactive_no_flow_10_6_0_0: flow_10_6_0_0 - 1000 edge_10_6_0_0 <= 0
 inactive_no_flow_10_7_0_0: flow_10_7_0_0 - 1000 edge_10_7_0_0 <= 0
 inactive_no_flow_10_8_0_0: flow_10_8_0_0 - 1000 edge_10_8_0_0 <= 0
 inactive_no_flow_10_9_0_0: flow_10_9_0_0 - 1000 edge_10_9_0_0 <= 0
 inactive_no_flow_10_11_0_0: flow_10_11_0_0 - 1000 edge_10_11_0_0 <= 0
 inactive_no_flow_10_12_0_0: flow_10_12_0_0 - 1000 edge_10_12_0_0 <= 0
 inactive_no_flow_10_13_0_0: flow_10_13_0_0 - 1000 edge_10_13_0_0 <= 0
 inactive_no_flow_10_15_0_0: flow_10_15_0_0 - 1000 edge_10_15_0_0 <= 0
 inactive_no_flow_10_16_0_0: flow_10_16_0_0 - 1000 edge_10_16_0_0 <= 0
 inactive_no_flow_10_19_0_0: flow_10_19_0_0 - 1000 edge_10_19_0_0 <= 0
 inactive_no_flow_10_20_0_0: flow_10_20_0_0 - 1000 edge_10_20_0_0 <= 0
 inactive_no_flow_10_21_0_0: flow_10_21_0_0 - 1000 edge_10_21_0_0 <= 0
 inactive_no_flow_10_22_0_0: flow_10_22_0_0 - 1000 edge_10_22_0_0 <= 0
 inactive_no_flow_10_23_0_0: flow_10_23_0_0 - 1000 edge_10_23_0_0 <= 0
 inactive_no_flow_10_25_0_0: flow_10_25_0_0 - 1000 edge_10_25_0_0 <= 0
 inactive_no_flow_11_1_0_0: flow_11_1_0_0 - 1000 edge_11_1_0_0 <= 0
 inactive_no_flow_11_2_0_0: flow_11_2_0_0 - 1000 edge_11_2_0_0 <= 0
 inactive_no_flow_11_3_0_0: flow_11_3_0_0 - 1000 edge_11_3_0_0 <= 0
 inactive_no_flow_11_5_0_0: flow_11_5_0_0 - 1000 edge_11_5_0_0 <= 0
 inactive_no_flow_11_6_0_0: flow_11_6_0_0 - 1000 edge_11_6_0_0 <= 0
 inactive_no_flow_11_7_0_0: flow_11_7_0_0 - 1000 edge_11_7_0_0 <= 0
 inactive_no_flow_11_8_0_0: flow_11_8_0_0 - 1000 edge_11_8_0_0 <= 0
 inactive_no_flow_11_9_0_0: flow_11_9_0_0 - 1000 edge_11_9_0_0 <= 0
 inactive_no_flow_11_10_0_0: flow_11_10_0_0 - 1000 edge_11_10_0_0 <= 0
 inactive_no_flow_11_12_0_0: flow_11_12_0_0 - 1000 edge_11_12_0_0 <= 0
 inactive_no_flow_11_13_0_0: flow_11_13_0_0 - 1000 edge_11_13_0_0 <= 0
 inactive_no_flow_11_14_0_0: flow_11_14_0_0 - 1000 edge_11_14_0_0 <= 0
 inactive_no_flow_11_15_0_0: flow_11_15_0_0 - 1000 edge_11_15_0_0 <= 0
 inactive_no_flow_11_16_0_0: flow_11_16_0_0 - 1000 edge_11_16_0_0 <= 0
 inactive_no_flow_11_18_0_0: flow_11_18_0_0 - 1000 edge_11_18_0_0 <= 0
 inactive_no_flow_11_19_0_0: flow_11_19_0_0 - 1000 edge_11_19_0_0 <= 0
 inactive_no_flow_11_20_0_0: flow_11_20_0_0 - 1000 edge_11_20_0_0 <= 0
 inactive_no_flow_11_21_0_0: flow_11_21_0_0 - 1000 edge_11_21_0_0 <= 0
 inactive_no_flow_11_22_0_0: flow_11_22_0_0 - 1000 edge_11_22_0_0 <= 0
 inactive_no_flow_11_23_0_0: flow_11_23_0_0 - 1000 edge_11_23_0_0 <= 0
 inactive_no_flow_11_25_0_0: flow_11_25_0_0 - 1000 edge_11_25_0_0 <= 0
 inactive_no_flow_12_11_0_0: flow_12_11_0_0 - 1000 edge_12_11_0_0 <= 0
 inactive_no_flow_12_13_0_0: flow_12_13_0_0 - 1000 edge_12_13_0_0 <= 0
 inactive_no_flow_13_11_0_0: flow_13_11_0_0 - 1000 edge_13_11_0_0 <= 0
 inactive_no_flow_13_18_0_0: flow_13_18_0_0 - 1000 edge_13_18_0_0 <= 0
 inactive_no_flow_13_19_0_0: flow_13_19_0_0 - 1000 edge_13_19_0_0 <= 0
 inactive_no_flow_14_16_0_0: flow_14_16_0_0 - 1000 edge_14_16_0_0 <= 0
 inactive_no_flow_15_2_0_0: flow_15_2_0_0 - 1000 edge_15_2_0_0 <= 0
 inactive_no_flow_15_13_0_0: flow_15_13_0_0 - 1000 edge_15_13_0_0 <= 0
 inactive_no_flow_15_14_0_0: flow_15_14_0_0 - 1000 edge_15_14_0_0 <= 0
 inactive_no_flow_15_16_0_0: flow_15_16_0_0 - 1000 edge_15_16_0_0 <= 0
 inactive_no_flow_15_18_0_0: flow_15_18_0_0 - 1000 edge_15_18_0_0 <= 0
 inactive_no_flow_15_19_0_0: flow_15_19_0_0 - 1000 edge_15_19_0_0 <= 0
 inactive_no_flow_15_20_0_0: flow_15_20_0_0 - 1000 edge_15_20_0_0 <= 0
 inactive_no_flow_15_21_0_0: flow_15_21_0_0 - 1000 edge_15_21_0_0 <= 0
 inactive_no_flow_15_22_0_0: flow_15_22_0_0 - 1000 edge_15_22_0_0 <= 0
 inactive_no_flow_15_23_0_0: flow_15_23_0_0 - 1000 edge_15_23_0_0 <= 0
 inactive_no_flow_15_25_0_0: flow_15_25_0_0 - 1000 edge_15_25_0_0 <= 0
 inactive_no_flow_16_3_0_0: flow_16_3_0_0 - 1000 edge_16_3_0_0 <= 0
 inactive_no_flow_16_8_0_0: flow_16_8_0_0 - 1000 edge_16_8_0_0 <= 0
 inactive_no_flow_16_9_0_0: flow_16_9_0_0 - 1000 edge_16_9_0_0 <= 0
 inactive_no_flow_16_10_0_0: flow_16_10_0_0 - 1000 edge_16_10_0_0 <= 0
 inactive_no_flow_16_13_0_0: flow_16_13_0_0 - 1000 edge_16_13_0_0 <= 0
 inactive_no_flow_16_14_0_0: flow_16_14_0_0 - 1000 edge_16_14_0_0 <= 0
 inactive_no_flow_16_15_0_0: flow_16_15_0_0 - 1000 edge_16_15_0_0 <= 0
 inactive_no_flow_16_18_0_0: flow_16_18_0_0 - 1000 edge_16_18_0_0 <= 0
 inactive_no_flow_16_19_0_0: flow_16_19_0_0 - 1000 edge_16_19_0_0 <= 0
 inactive_no_flow_16_20_0_0: flow_16_20_0_0 - 1000 edge_16_20_0_0 <= 0
 inactive_no_flow_16_21_0_0: flow_16_21_0_0 - 1000 edge_16_21_0_0 <= 0
 inactive_no_flow_16_22_0_0: flow_16_22_0_0 - 1000 edge_16_22_0_0 <= 0
 inactive_no_flow_16_23_0_0: flow_16_23_0_0 - 1000 edge_16_23_0_0 <= 0
 inactive_no_flow_16_25_0_0: flow_16_25_0_0 - 1000 edge_16_25_0_0 <= 0
 inactive_no_flow_18_13_0_0: flow_18_13_0_0 - 1000 edge_18_13_0_0 <= 0
 inactive_no_flow_18_15_0_0: flow_18_15_0_0 - 1000 edge_18_15_0_0 <= 0
 inactive_no_flow_19_2_0_0: flow_19_2_0_0 - 1000 edge_19_2_0_0 <= 0
 inactive_no_flow_19_3_0_0: flow_19_3_0_0 - 1000 edge_19_3_0_0 <= 0
 inactive_no_flow_19_5_0_0: flow_19_5_0_0 - 1000 edge_19_5_0_0 <= 0
 inactive_no_flow_19_6_0_0: flow_19_6_0_0 - 1000 edge_19_6_0_0 <= 0
 inactive_no_flow_19_7_0_0: flow_19_7_0_0 - 1000 edge_19_7_0_0 <= 0
 inactive_no_flow_19_8_0_0: flow_19_8_0_0 - 1000 edge_19_8_0_0 <= 0
 inactive_no_flow_19_9_0_0: flow_19_9_0_0 - 1000 edge_19_9_0_0 <= 0
 inactive_no_flow_19_10_0_0: flow_19_10_0_0 - 1000 edge_19_10_0_0 <= 0
 inactive_no_flow_19_11_0_0: flow_19_11_0_0 - 1000 edge_19_11_0_0 <= 0
 inactive_no_flow_19_12_0_0: flow_19_12_0_0 - 1000 edge_19_12_0_0 <= 0
 inactive_no_flow_19_13_0_0: flow_19_13_0_0 - 1000 edge_19_13_0_0 <= 0
 inactive_no_flow_19_14_0_0: flow_19_14_0_0 - 1000 edge_19_14_0_0 <= 0
 inactive_no_flow_19_15_0_0: flow_19_15_0_0 - 1000 edge_19_15_0_0 <= 0
 inactive_no_flow_19_16_0_0: flow_19_16_0_0 - 1000 edge_19_16_0_0 <= 0
 inactive_no_flow_19_18_0_0: flow_19_18_0_0 - 1000 edge_19_18_0_0 <= 0
 inactive_no_flow_19_20_0_0: flow_19_20_0_0 - 1000 edge_19_20_0_0 <= 0
 inactive_no_flow_19_21_0_0: flow_19_21_0_0 - 1000 edge_19_21_0_0 <= 0
 inactive_no_flow_19_22_0_0: flow_19_22_0_0 - 1000 edge_19_22_0_0 <= 0
 inactive_no_flow_19_23_0_0: flow_19_23_0_0 - 1000 edge_19_23_0_0 <= 0
 inactive_no_flow_19_25_0_0: flow_19_25_0_0 - 1000 edge_19_25_0_0 <= 0
 inactive_no_flow_20_15_0_0: flow_20_15_0_0 - 1000 edge_20_15_0_0 <= 0
 inactive_no_flow_20_21_0_0: flow_20_21_0_0 - 1000 edge_20_21_0_0 <= 0
 inactive_no_flow_21_15_0_0: flow_21_15_0_0 - 1000 edge_21_15_0_0 <= 0
 inactive_no_flow_21_20_0_0: flow_21_20_0_0 - 1000 edge_21_20_0_0 <= 0
 inactive_no_flow_21_22_0_0: flow_21_22_0_0 - 1000 edge_21_22_0_0 <= 0
 inactive_no_flow_21_23_0_0: flow_21_23_0_0 - 1000 edge_21_23_0_0 <= 0
 inactive_no_flow_22_21_0_0: flow_22_21_0_0 - 1000 edge_22_21_0_0 <= 0
 inactive_no_flow_22_23_0_0: flow_22_23_0_0 - 1000 edge_22_23_0_0 <= 0
 inactive_no_flow_22_25_0_0: flow_22_25_0_0 - 1000 edge_22_25_0_0 <= 0
 inactive_no_flow_23_1_0_0: flow_23_1_0_0 - 1000 edge_23_1_0_0 <= 0
 inactive_no_flow_23_2_0_0: flow_23_2_0_0 - 1000 edge_23_2_0_0 <= 0
 inactive_no_flow_23_3_0_0: flow_23_3_0_0 - 1000 edge_23_3_0_0 <= 0
 inactive_no_flow_23_5_0_0: flow_23_5_0_0 - 1000 edge_23_5_0_0 <= 0
 inactive_no_flow_23_6_0_0: flow_23_6_0_0 - 1000 edge_23_6_0_0 <= 0
 inactive_no_flow_23_7_0_0: flow_23_7_0_0 - 1000 edge_23_7_0_0 <= 0
 inactive_no_flow_23_9_0_0: flow_23_9_0_0 - 1000 edge_23_9_0_0 <= 0
 inactive_no_flow_23_10_0_0: flow_23_10_0_0 - 1000 edge_23_10_0_0 <= 0
 inactive_no_flow_23_11_0_0: flow_23_11_0_0 - 1000 edge_23_11_0_0 <= 0
 inactive_no_flow_23_12_0_0: flow_23_12_0_0 - 1000 edge_23_12_0_0 <= 0
 inactive_no_flow_23_13_0_0: flow_23_13_0_0 - 1000 edge_23_13_0_0 <= 0
 inactive_no_flow_23_14_0_0: flow_23_14_0_0 - 1000 edge_23_14_0_0 <= 0
 inactive_no_flow_23_15_0_0: flow_23_15_0_0 - 1000 edge_23_15_0_0 <= 0
 inactive_no_flow_23_16_0_0: flow_23_16_0_0 - 1000 edge_23_16_0_0 <= 0
 inactive_no_flow_23_19_0_0: flow_23_19_0_0 - 1000 edge_23_19_0_0 <= 0
 inactive_no_flow_23_20_0_0: flow_23_20_0_0 - 1000 edge_23_20_0_0 <= 0
 inactive_no_flow_23_21_0_0: flow_23_21_0_0 - 1000 edge_23_21_0_0 <= 0
 inactive_no_flow_23_22_0_0: flow_23_22_0_0 - 1000 edge_23_22_0_0 <= 0
 inactive_no_flow_23_25_0_0: flow_23_25_0_0 - 1000 edge_23_25_0_0 <= 0
 inactive_no_flow_25_23_0_0: flow_25_23_0_0 - 1000 edge_25_23_0_0 <= 0
Bounds
Binaries
 edge_0_1_0_0 edge_0_2_0_0 edge_0_3_0_0 edge_0_5_0_0 edge_0_9_0_0
 edge_0_10_0_0 edge_0_11_0_0 edge_0_16_0_0 edge_0_19_0_0 edge_0_22_0_0
 edge_0_23_0_0 edge_1_2_0_0 edge_1_3_0_0 edge_1_6_0_0 edge_1_7_0_0
 edge_1_10_0_0 edge_1_11_0_0 edge_2_1_0_0 edge_2_3_0_0 edge_2_5_0_0
 edge_2_6_0_0 edge_2_8_0_0 edge_2_9_0_0 edge_2_10_0_0 edge_2_11_0_0
 edge_2_15_0_0 edge_2_16_0_0 edge_2_19_0_0 edge_2_20_0_0 edge_2_21_0_0
 edge_2_22_0_0 edge_2_23_0_0 edge_3_1_0_0 edge_3_2_0_0 edge_3_5_0_0
 edge_3_6_0_0 edge_3_7_0_0 edge_3_8_0_0 edge_3_9_0_0 edge_3_10_0_0
 edge_3_11_0_0 edge_3_12_0_0 edge_3_13_0_0 edge_3_15_0_0 edge_3_16_0_0
 edge_3_19_0_0 edge_3_20_0_0 edge_3_21_0_0 edge_3_22_0_0 edge_3_23_0_0
 edge_3_25_0_0 edge_5_1_0_0 edge_5_2_0_0 edge_5_3_0_0 edge_5_6_0_0
 edge_5_7_0_0 edge_5_8_0_0 edge_5_9_0_0 edge_5_10_0_0 edge_5_11_0_0
 edge_5_12_0_0 edge_5_15_0_0 edge_5_16_0_0 edge_5_19_0_0 edge_5_20_0_0
 edge_5_21_0_0 edge_5_22_0_0 edge_5_23_0_0 edge_6_3_0_0 edge_6_5_0_0
 edge_6_7_0_0 edge_7_3_0_0 edge_7_5_0_0 edge_7_6_0_0 edge_7_8_0_0
 edge_7_9_0_0 edge_7_10_0_0 edge_7_11_0_0 edge_7_12_0_0 edge_7_13_0_0
 edge_8_7_0_0 edge_9_2_0_0 edge_9_3_0_0 edge_9_5_0_0 edge_9_6_0_0
 edge_9_7_0_0 edge_9_8_0_0 edge_9_10_0_0 edge_9_11_0_0 edge_9_12_0_0
 edge_9_15_0_0 edge_9_16_0_0 edge_9_19_0_0 edge_9_20_0_0 edge_9_21_0_0
 edge_9_22_0_0 edge_9_23_0_0 edge_9_25_0_0 edge_10_1_0_0 edge_10_2_0_0
 edge_10_3_0_0 edge_10_5_0_0 edge_10_6_0_0 edge_10_7_0_0 edge_10_8_0_0
 edge_10_9_0_0 edge_10_11_0_0 edge_10_12_0_0 edge_10_13_0_0 edge_10_15_0_0
 edge_10_16_0_0 edge_10_19_0_0 edge_10_20_0_0 edge_10_21_0_0 edge_10_22_0_0
 edge_10_23_0_0 edge_10_25_0_0 edge_11_1_0_0 edge_11_2_0_0 edge_11_3_0_0
 edge_11_5_0_0 edge_11_6_0_0 edge_11_7_0_0 edge_11_8_0_0 edge_11_9_0_0
 edge_11_10_0_0 edge_11_12_0_0 edge_11_13_0_0 edge_11_14_0_0 edge_11_15_0_0
 edge_11_16_0_0 edge_11_18_0_0 edge_11_19_0_0 edge_11_20_0_0 edge_11_21_0_0
 edge_11_22_0_0 edge_11_23_0_0 edge_11_25_0_0 edge_12_11_0_0 edge_12_13_0_0
 edge_13_11_0_0 edge_13_18_0_0 edge_13_19_0_0 edge_14_16_0_0 edge_15_2_0_0
 edge_15_13_0_0 edge_15_14_0_0 edge_15_16_0_0 edge_15_18_0_0 edge_15_19_0_0
 edge_15_20_0_0 edge_15_21_0_0 edge_15_22_0_0 edge_15_23_0_0 edge_15_25_0_0
 edge_16_3_0_0 edge_16_8_0_0 edge_16_9_0_0 edge_16_10_0_0 edge_16_13_0_0
 edge_16_14_0_0 edge_16_15_0_0 edge_16_18_0_0 edge_16_19_0_0 edge_16_20_0_0
 edge_16_21_0_0 edge_16_22_0_0 edge_16_23_0_0 edge_16_25_0_0 edge_18_13_0_0
 edge_18_15_0_0 edge_19_2_0_0 edge_19_3_0_0 edge_19_5_0_0 edge_19_6_0_0
 edge_19_7_0_0 edge_19_8_0_0 edge_19_9_0_0 edge_19_10_0_0 edge_19_11_0_0
 edge_19_12_0_0 edge_19_13_0_0 edge_19_14_0_0 edge_19_15_0_0 edge_19_16_0_0
 edge_19_18_0_0 edge_19_20_0_0 edge_19_21_0_0 edge_19_22_0_0 edge_19_23_0_0
 edge_19_25_0_0 edge_20_15_0_0 edge_20_21_0_0 edge_21_15_0_0 edge_21_20_0_0
 edge_21_22_0_0 edge_21_23_0_0 edge_22_21_0_0 edge_22_23_0_0 edge_22_25_0_0
 edge_23_1_0_0 edge_23_2_0_0 edge_23_3_0_0 edge_23_5_0_0 edge_23_6_0_0
 edge_23_7_0_0 edge_23_9_0_0 edge_23_10_0_0 edge_23_11_0_0 edge_23_12_0_0
 edge_23_13_0_0 edge_23_14_0_0 edge_23_15_0_0 edge_23_16_0_0 edge_23_19_0_0
 edge_23_20_0_0 edge_23_21_0_0 edge_23_22_0_0 edge_23_25_0_0 edge_25_23_0_0
End
